NAME : ch130.11164.tour
COMMENT : Cost = 1184_11164
COMMENT : Found by LKH [Keld Helsgaun] Thu Nov 16 17:30:50 2017
TYPE : TOUR
DIMENSION : 139
TOUR_SECTION
1
34
27
15
29
103
82
57
9
56
81
24
100
31
131
35
4
53
120
91
72
49
58
106
54
134
123
111
132
71
3
114
108
8
126
121
78
13
67
96
10
14
23
33
21
18
130
133
16
45
5
11
76
109
61
64
69
86
88
7
70
97
26
124
129
137
50
80
46
20
93
37
22
47
40
122
55
102
6
60
51
42
44
118
2
138
127
107
63
68
48
25
32
84
119
36
113
98
110
43
104
136
38
92
73
99
74
75
52
65
12
87
79
95
116
17
139
41
39
117
83
30
59
90
125
85
66
28
115
62
112
105
128
135
19
77
101
94
89
-1
EOF
